
  32    4
  10   10   10   10

   0   0   0   0   0   5 2 4 10 14 17 
   4   1   1   0   1   1 3 
   8   2   2   1   0   4 16 12 11 5 
   3   0   5   4   4   5 21 16 12 11 6 
   5   5   3   0   6   4 31 30 15 7 
   6   7   7   3   0   5 31 30 29 19 9 
   1   3   0   7   3   3 20 19 8 
   1   2   0   5   5   2 29 9 
  10   0   6   5   5   5 27 25 24 23 13 
   3   4   0   3   3   1 12 
   8   0   4   1   4   4 30 27 20 19 
   6   3   4   0   4   3 28 22 15 
   8   3   2   4   0   2 22 18 
   7   6   4   0   6   2 22 21 
   5   2   3   0   6   2 25 24 
  10   3   5   0   3   2 28 22 
   2   2   4   0   4   2 23 22 
   4   3   5   4   0   1 26 
   4   7   0   5   9   1 23 
   7   6   4   3   0   1 23 
   1   0   4   5   4   1 28 
   4   5   4   0   3   1 32
   2   0   3   3   1   1 32
  10   5   5   0   2   1 32
  10   3   0   6   3   1 32
   5   0   5   5   2   1 32
   1   4   0   3   4   1 32
   5   6   0   2   6   1 32
   6   4   0   5   4   1 32
   6   5   4   6   0   1 32
   4   5   4   4   0   1 32
   0   0   0   0   0   0 
